p cnf 7230 18
5419 5511 5843 5845 -5989 0
-5419 -5990 0
-5991 -5992 0
-5673 -5921 5986 0
-5511 -5990 0
5673 -5986 0
-5675 -5839 -5987 0
5675 -5988 0
-5843 -5990 0
5989 5990 0
5987 5988 0
5839 -5988 0
-5845 -5990 0
-5092 -5871 5992 0
5985 5986 0
-5985 -5986 0
5871 -5992 0
5092 -5992 0
